jobs  (incl. supersource/sink ):	102
RESOURCES
- renewable                 : 2 R
- nonrenewable              : 2 N
- doubly constrained        : 0 D
************************************************************************
PRECEDENCE RELATIONS:
jobnr.    #modes  #successors   successors
1	1	7		2 3 4 5 11 12 17 
2	3	6		24 22 18 14 8 7 
3	3	5		27 18 16 15 6 
4	3	5		27 18 13 8 7 
5	3	3		19 10 9 
6	3	4		30 22 20 13 
7	3	6		35 30 26 23 21 20 
8	3	5		28 26 25 20 15 
9	3	3		21 18 13 
10	3	6		36 34 33 30 26 22 
11	3	5		35 33 30 28 21 
12	3	4		30 26 25 21 
13	3	5		36 34 33 26 25 
14	3	5		36 34 28 26 25 
15	3	9		42 36 35 34 33 32 31 30 29 
16	3	3		35 26 21 
17	3	5		36 33 31 29 28 
18	3	4		35 34 32 26 
19	3	7		42 37 34 33 32 31 29 
20	3	6		37 34 33 32 31 29 
21	3	5		36 34 32 31 29 
22	3	5		54 38 35 31 28 
23	3	5		54 38 34 31 28 
24	3	6		43 42 36 34 30 29 
25	3	5		37 35 32 31 29 
26	3	5		44 42 37 31 29 
27	3	5		42 37 34 31 29 
28	3	8		52 45 43 42 40 39 37 32 
29	3	12		55 54 52 51 50 49 46 45 41 40 39 38 
30	3	10		54 51 50 49 48 47 46 45 41 40 
31	3	6		52 49 47 43 40 39 
32	3	8		61 55 53 50 49 47 46 44 
33	3	7		55 52 51 50 49 48 40 
34	3	7		59 53 52 50 49 48 45 
35	3	6		55 53 50 49 48 45 
36	3	1		37 
37	3	4		50 49 48 41 
38	3	8		68 67 63 61 57 56 53 47 
39	3	8		68 66 61 60 59 57 56 48 
40	3	10		70 68 67 66 61 60 59 57 56 53 
41	3	10		70 67 66 63 61 60 59 57 56 53 
42	3	9		69 67 66 62 61 59 57 56 51 
43	3	8		70 63 62 61 59 58 56 50 
44	3	8		69 67 66 62 59 58 56 51 
45	3	8		69 68 66 63 62 61 60 56 
46	3	8		79 78 70 68 63 62 59 58 
47	3	7		78 70 69 66 62 60 59 
48	3	8		79 78 70 69 67 63 62 58 
49	3	8		75 71 68 67 66 65 63 56 
50	3	6		78 67 66 65 60 57 
51	3	6		78 70 68 65 63 60 
52	3	6		75 67 66 62 61 58 
53	3	6		78 76 75 69 62 58 
54	3	5		79 67 65 62 57 
55	3	5		83 76 63 62 59 
56	3	6		83 78 76 73 72 64 
57	3	6		83 76 75 73 72 64 
58	3	5		83 77 74 71 65 
59	3	3		75 65 64 
60	3	6		83 79 76 75 72 71 
61	3	4		78 77 74 65 
62	3	2		73 64 
63	3	2		73 64 
64	3	8		101 100 88 87 81 80 77 74 
65	3	7		88 87 86 84 81 73 72 
66	3	6		100 87 81 77 74 73 
67	3	6		100 87 82 81 80 74 
68	3	5		88 86 80 77 72 
69	3	9		101 98 92 86 85 83 82 81 80 
70	3	6		101 91 88 85 80 76 
71	3	8		101 100 91 87 86 85 84 80 
72	3	10		101 100 99 98 95 94 91 90 89 85 
73	3	6		101 98 92 91 85 80 
74	3	7		99 98 95 92 90 86 85 
75	3	6		100 98 95 90 85 82 
76	3	4		96 87 84 81 
77	3	5		98 96 95 90 82 
78	3	5		100 98 97 96 80 
79	3	7		97 96 95 94 92 89 88 
80	3	4		99 95 94 89 
81	3	4		99 95 94 89 
82	3	4		97 94 91 89 
83	3	4		97 96 95 90 
84	3	3		95 94 90 
85	3	3		97 96 93 
86	3	2		94 89 
87	3	2		98 89 
88	3	1		90 
89	3	1		93 
90	3	1		93 
91	3	1		93 
92	3	1		93 
93	3	1		102 
94	3	1		102 
95	3	1		102 
96	3	1		102 
97	3	1		102 
98	3	1		102 
99	3	1		102 
100	3	1		102 
101	3	1		102 
102	1	0		
************************************************************************
REQUESTS/DURATIONS
jobnr.	mode	dur	R1	R2	N1	N2	
------------------------------------------------------------------------
1	1	0	0	0	0	0	
2	1	2	3	3	0	7	
	2	3	3	3	3	0	
	3	3	2	3	0	2	
3	1	1	4	3	0	6	
	2	3	2	3	6	0	
	3	3	2	3	0	3	
4	1	1	4	5	0	2	
	2	2	4	5	6	0	
	3	10	3	5	4	0	
5	1	4	5	3	0	5	
	2	7	3	3	7	0	
	3	10	3	2	0	1	
6	1	7	2	3	0	6	
	2	8	1	2	4	0	
	3	10	1	2	0	5	
7	1	5	3	2	7	0	
	2	6	3	2	0	3	
	3	8	3	1	4	0	
8	1	3	4	4	7	0	
	2	4	4	4	0	1	
	3	4	4	4	1	0	
9	1	4	4	2	9	0	
	2	7	3	2	0	5	
	3	10	2	2	5	0	
10	1	4	3	4	0	8	
	2	5	3	4	3	0	
	3	7	2	4	2	0	
11	1	1	4	1	0	9	
	2	6	3	1	2	0	
	3	8	3	1	1	0	
12	1	1	4	3	10	0	
	2	4	3	3	0	5	
	3	4	3	1	1	0	
13	1	4	4	1	0	5	
	2	7	3	1	3	0	
	3	8	3	1	1	0	
14	1	4	3	5	9	0	
	2	6	2	2	0	4	
	3	10	2	2	9	0	
15	1	1	1	3	8	0	
	2	7	1	3	7	0	
	3	8	1	3	5	0	
16	1	4	1	1	0	7	
	2	6	1	1	6	0	
	3	7	1	1	0	3	
17	1	1	4	4	0	8	
	2	6	3	2	0	5	
	3	9	3	2	3	0	
18	1	5	4	4	0	10	
	2	9	3	4	0	9	
	3	10	2	4	0	9	
19	1	3	3	5	5	0	
	2	8	3	5	4	0	
	3	9	3	5	3	0	
20	1	1	4	5	0	9	
	2	2	4	4	3	0	
	3	4	4	2	0	4	
21	1	2	4	3	6	0	
	2	5	3	2	5	0	
	3	6	3	1	3	0	
22	1	1	2	2	0	2	
	2	7	1	2	5	0	
	3	8	1	2	4	0	
23	1	4	3	1	0	4	
	2	5	3	1	4	0	
	3	8	2	1	0	4	
24	1	2	4	3	0	6	
	2	3	3	3	0	5	
	3	4	3	3	0	4	
25	1	7	2	1	0	5	
	2	8	2	1	4	0	
	3	9	2	1	0	4	
26	1	1	3	4	0	4	
	2	8	3	4	0	3	
	3	9	3	3	0	2	
27	1	1	5	4	4	0	
	2	1	5	2	0	2	
	3	2	5	2	2	0	
28	1	1	4	4	5	0	
	2	5	3	3	4	0	
	3	6	3	3	3	0	
29	1	1	4	3	8	0	
	2	7	4	2	5	0	
	3	9	4	1	4	0	
30	1	3	3	2	0	5	
	2	7	3	2	8	0	
	3	10	2	1	0	2	
31	1	3	2	4	6	0	
	2	6	2	3	0	5	
	3	10	2	3	1	0	
32	1	3	4	1	8	0	
	2	9	3	1	5	0	
	3	10	3	1	4	0	
33	1	6	3	3	7	0	
	2	7	1	3	0	2	
	3	9	1	3	0	1	
34	1	5	4	2	0	8	
	2	6	4	1	0	5	
	3	9	4	1	0	4	
35	1	3	5	2	10	0	
	2	9	4	1	0	4	
	3	10	4	1	8	0	
36	1	2	5	5	0	8	
	2	3	2	4	0	5	
	3	9	2	3	0	4	
37	1	3	5	2	6	0	
	2	6	4	1	5	0	
	3	9	3	1	0	8	
38	1	5	5	2	7	0	
	2	6	5	1	4	0	
	3	7	5	1	2	0	
39	1	1	5	3	0	8	
	2	3	3	3	0	4	
	3	6	3	2	8	0	
40	1	7	2	4	0	7	
	2	8	2	2	4	0	
	3	9	2	2	3	0	
41	1	1	3	4	0	7	
	2	6	3	4	0	6	
	3	10	3	3	0	6	
42	1	4	4	4	0	7	
	2	8	3	2	0	6	
	3	10	3	1	0	5	
43	1	3	5	4	7	0	
	2	6	5	3	7	0	
	3	10	5	3	4	0	
44	1	3	4	2	0	5	
	2	4	4	2	0	2	
	3	4	4	2	3	0	
45	1	3	1	3	0	9	
	2	7	1	3	1	0	
	3	10	1	3	0	6	
46	1	6	4	4	0	6	
	2	7	3	4	0	5	
	3	9	2	4	5	0	
47	1	9	3	4	8	0	
	2	10	3	2	7	0	
	3	10	1	1	0	1	
48	1	5	5	4	0	7	
	2	6	5	2	5	0	
	3	8	5	1	3	0	
49	1	1	4	4	3	0	
	2	1	2	4	0	8	
	3	5	2	4	1	0	
50	1	5	4	2	8	0	
	2	6	4	2	7	0	
	3	9	4	2	6	0	
51	1	3	3	2	0	2	
	2	7	2	2	0	1	
	3	8	2	2	4	0	
52	1	3	4	1	0	7	
	2	8	4	1	0	6	
	3	9	3	1	0	4	
53	1	4	1	5	10	0	
	2	7	1	4	7	0	
	3	8	1	4	6	0	
54	1	6	4	3	0	4	
	2	7	4	3	0	3	
	3	7	4	2	7	0	
55	1	1	5	5	0	5	
	2	2	4	3	7	0	
	3	5	3	3	0	2	
56	1	1	5	4	0	6	
	2	6	4	3	0	4	
	3	9	3	2	2	0	
57	1	2	4	3	8	0	
	2	5	4	2	7	0	
	3	6	4	1	0	1	
58	1	1	5	4	0	6	
	2	6	4	2	6	0	
	3	8	3	2	4	0	
59	1	1	2	5	9	0	
	2	2	2	4	0	6	
	3	4	1	4	5	0	
60	1	1	3	1	3	0	
	2	2	3	1	2	0	
	3	4	1	1	1	0	
61	1	3	5	3	0	3	
	2	5	4	2	0	2	
	3	7	4	2	4	0	
62	1	1	3	4	0	3	
	2	4	3	4	0	2	
	3	7	3	4	0	1	
63	1	3	3	5	0	5	
	2	6	2	4	0	4	
	3	8	2	4	0	3	
64	1	6	3	3	0	8	
	2	8	2	2	0	7	
	3	10	2	2	0	5	
65	1	4	2	4	0	7	
	2	7	2	4	0	5	
	3	9	2	4	0	3	
66	1	2	4	2	4	0	
	2	7	3	1	2	0	
	3	10	1	1	2	0	
67	1	1	3	4	7	0	
	2	7	2	4	4	0	
	3	10	2	3	3	0	
68	1	1	2	4	8	0	
	2	2	2	2	5	0	
	3	9	1	1	0	6	
69	1	2	5	4	5	0	
	2	5	4	3	0	2	
	3	6	4	2	3	0	
70	1	2	5	4	6	0	
	2	5	5	2	0	6	
	3	7	5	2	3	0	
71	1	2	5	2	0	9	
	2	7	4	1	4	0	
	3	8	2	1	0	7	
72	1	1	3	3	9	0	
	2	3	3	3	8	0	
	3	7	3	3	7	0	
73	1	7	3	4	0	8	
	2	8	2	3	1	0	
	3	9	1	1	1	0	
74	1	5	2	3	10	0	
	2	6	2	3	9	0	
	3	10	1	2	0	1	
75	1	1	5	5	4	0	
	2	7	5	3	2	0	
	3	8	5	2	0	5	
76	1	2	4	4	0	9	
	2	4	4	3	8	0	
	3	10	4	3	0	9	
77	1	1	4	3	9	0	
	2	6	3	3	8	0	
	3	9	3	2	8	0	
78	1	1	1	1	0	4	
	2	7	1	1	7	0	
	3	9	1	1	0	1	
79	1	2	3	3	6	0	
	2	6	2	3	0	5	
	3	7	1	1	0	2	
80	1	1	3	3	0	2	
	2	2	3	2	4	0	
	3	10	1	2	3	0	
81	1	1	2	2	5	0	
	2	7	2	2	4	0	
	3	8	1	2	0	3	
82	1	3	2	1	0	1	
	2	7	1	1	4	0	
	3	8	1	1	3	0	
83	1	2	3	5	6	0	
	2	7	3	4	4	0	
	3	10	3	4	0	1	
84	1	1	4	5	10	0	
	2	7	3	4	0	6	
	3	10	1	4	0	4	
85	1	4	4	2	10	0	
	2	7	3	1	9	0	
	3	8	3	1	8	0	
86	1	1	1	5	9	0	
	2	1	1	4	0	3	
	3	4	1	4	3	0	
87	1	3	2	3	10	0	
	2	7	2	3	0	7	
	3	7	1	2	1	0	
88	1	6	5	3	0	10	
	2	7	5	2	5	0	
	3	9	5	2	0	5	
89	1	5	3	5	0	10	
	2	6	2	3	5	0	
	3	9	1	3	0	9	
90	1	1	4	3	10	0	
	2	9	4	2	0	5	
	3	10	4	2	0	3	
91	1	3	3	4	0	3	
	2	5	2	4	10	0	
	3	6	2	3	10	0	
92	1	3	2	5	8	0	
	2	8	2	3	3	0	
	3	9	2	3	1	0	
93	1	1	2	3	5	0	
	2	2	2	3	3	0	
	3	10	2	1	3	0	
94	1	5	3	4	8	0	
	2	6	2	2	4	0	
	3	9	2	1	4	0	
95	1	4	3	3	3	0	
	2	7	2	3	2	0	
	3	10	1	2	1	0	
96	1	5	4	3	0	8	
	2	8	4	3	0	7	
	3	9	3	3	0	8	
97	1	4	3	5	0	5	
	2	5	2	5	0	4	
	3	6	2	5	0	3	
98	1	2	3	3	0	10	
	2	3	3	3	0	8	
	3	4	3	3	2	0	
99	1	6	4	3	0	4	
	2	8	3	3	7	0	
	3	9	3	2	0	4	
100	1	4	2	3	0	6	
	2	5	2	1	4	0	
	3	10	2	1	0	2	
101	1	1	3	4	9	0	
	2	9	2	4	0	5	
	3	9	1	4	3	0	
102	1	0	0	0	0	0	
************************************************************************

 RESOURCE AVAILABILITIES 
	R 1	R 2	N 1	N 2
	15	13	190	150

************************************************************************
